Route #1: 115 114 106 107 108 109 120
Route #2: 78 133 68 70 69 110 123 122 111 125 124 127 121 113 129 128 126 112 81
Route #3: 73 74 76 134 77 64 63 79 67 80 33 71 66
Route #4: 72 47 32 34 48 49 50 51 52 53 54 58 31 30 26 24 22
Route #5: 23 59 60 61 57 56 105 97 96 38 39 95 37 98 36 100 99 35 101 102 104 103 55 62 1 75
Route #6: 91 21 25 27 28 92 29 93 94 45 43 44 40 3 41 42 2 4 5 6 7 8 9 10 11 12 14 88 15 13 16 90 89 87 86 84 85 83 20 82
Route #7: 19 65 130 119 117 131 116 132 18 17 118 46
Cost 1164
Time 0.257714
